p cnf 1393
-25 -431
-26 -434
-27 -437
-28 -440
-29 -443
-30 -446
-31 -449
-32 -452
-33 -455
-34 -458
-35 -461
-36 -464
-37 -467
-38 -470
-39 -473
-40 -476
-41 -479
-42 -482
-43 -485
-44 -488
-45 -491
-46 -494
-47 -497
-48 -500
-49 501
-50 502
-51 503
-52 504
-53 505
-54 506
-55 -26
-55 -27
26 27 55
-56 -28
-56 -29
28 29 56
-57 -30
-57 -31
30 31 57
-58 -32
-58 -33
32 33 58
-59 -34
-59 -35
34 35 59
-60 -36
-60 -37
36 37 60
-61 -38
-61 -39
38 39 61
-62 -40
-62 -41
40 41 62
-63 -42
-63 -43
42 43 63
-64 -44
-64 -45
44 45 64
-65 -46
-65 -47
46 47 65
-66 -48
-66 -49
48 49 66
-67 -50
-67 -51
50 51 67
-68 -52
-68 -53
52 53 68
-69 55
-69 56
-55 -56 69
-70 57
-70 58
-57 -58 70
-71 59
-71 60
-59 -60 71
-72 61
-72 62
-61 -62 72
-73 63
-73 64
-63 -64 73
-74 65
-74 66
-65 -66 74
-75 67
-75 68
-67 -68 75
-76 69
-76 70
-69 -70 76
-77 71
-77 72
-71 -72 77
-78 73
-78 74
-73 -74 78
-79 -54
-79 75
54 -75 79
-80 76
-80 77
-76 -77 80
-81 78
-81 79
-78 -79 81
-82 80
-82 81
-80 -81 82
-83 -25
-83 26
25 -26 83
-84 25
-84 -26
-25 26 84
-85 -83
-85 -84
83 84 85
-86 25
-86 26
-25 -26 86
-87 -25
-87 -85
25 85 87
-88 25
-88 85
-25 -85 88
-89 -87
-89 -88
87 88 89
-90 25
-90 -85
-25 85 90
-91 -86
-91 -90
86 90 91
-92 -26
-92 27
26 -27 92
-93 26
-93 -27
-26 27 93
-94 -92
-94 -93
92 93 94
-95 26
-95 27
-26 -27 95
-96 91
-96 -94
-91 94 96
-97 -91
-97 94
91 -94 97
-98 -96
-98 -97
96 97 98
-99 -91
-99 -94
91 94 99
-100 -95
-100 -99
95 99 100
-101 -27
-101 28
27 -28 101
-102 27
-102 -28
-27 28 102
-103 -101
-103 -102
101 102 103
-104 27
-104 28
-27 -28 104
-105 100
-105 -103
-100 103 105
-106 -100
-106 103
100 -103 106
-107 -105
-107 -106
105 106 107
-108 -100
-108 -103
100 103 108
-109 -104
-109 -108
104 108 109
-110 -28
-110 29
28 -29 110
-111 28
-111 -29
-28 29 111
-112 -110
-112 -111
110 111 112
-113 28
-113 29
-28 -29 113
-114 109
-114 -112
-109 112 114
-115 -109
-115 112
109 -112 115
-116 -114
-116 -115
114 115 116
-117 -109
-117 -112
109 112 117
-118 -113
-118 -117
113 117 118
-119 -29
-119 30
29 -30 119
-120 29
-120 -30
-29 30 120
-121 -119
-121 -120
119 120 121
-122 29
-122 30
-29 -30 122
-123 118
-123 -121
-118 121 123
-124 -118
-124 121
118 -121 124
-125 -123
-125 -124
123 124 125
-126 -118
-126 -121
118 121 126
-127 -122
-127 -126
122 126 127
-128 -30
-128 31
30 -31 128
-129 30
-129 -31
-30 31 129
-130 -128
-130 -129
128 129 130
-131 30
-131 31
-30 -31 131
-132 127
-132 -130
-127 130 132
-133 -127
-133 130
127 -130 133
-134 -132
-134 -133
132 133 134
-135 -127
-135 -130
127 130 135
-136 -131
-136 -135
131 135 136
-137 -31
-137 32
31 -32 137
-138 31
-138 -32
-31 32 138
-139 -137
-139 -138
137 138 139
-140 31
-140 32
-31 -32 140
-141 136
-141 -139
-136 139 141
-142 -136
-142 139
136 -139 142
-143 -141
-143 -142
141 142 143
-144 -136
-144 -139
136 139 144
-145 -140
-145 -144
140 144 145
-146 -32
-146 33
32 -33 146
-147 32
-147 -33
-32 33 147
-148 -146
-148 -147
146 147 148
-149 32
-149 33
-32 -33 149
-150 145
-150 -148
-145 148 150
-151 -145
-151 148
145 -148 151
-152 -150
-152 -151
150 151 152
-153 -145
-153 -148
145 148 153
-154 -149
-154 -153
149 153 154
-155 -33
-155 34
33 -34 155
-156 33
-156 -34
-33 34 156
-157 -155
-157 -156
155 156 157
-158 33
-158 34
-33 -34 158
-159 154
-159 -157
-154 157 159
-160 -154
-160 157
154 -157 160
-161 -159
-161 -160
159 160 161
-162 -154
-162 -157
154 157 162
-163 -158
-163 -162
158 162 163
-164 -34
-164 35
34 -35 164
-165 34
-165 -35
-34 35 165
-166 -164
-166 -165
164 165 166
-167 34
-167 35
-34 -35 167
-168 163
-168 -166
-163 166 168
-169 -163
-169 166
163 -166 169
-170 -168
-170 -169
168 169 170
-171 -163
-171 -166
163 166 171
-172 -167
-172 -171
167 171 172
-173 -35
-173 36
35 -36 173
-174 35
-174 -36
-35 36 174
-175 -173
-175 -174
173 174 175
-176 35
-176 36
-35 -36 176
-177 172
-177 -175
-172 175 177
-178 -172
-178 175
172 -175 178
-179 -177
-179 -178
177 178 179
-180 -172
-180 -175
172 175 180
-181 -176
-181 -180
176 180 181
-182 -36
-182 37
36 -37 182
-183 36
-183 -37
-36 37 183
-184 -182
-184 -183
182 183 184
-185 36
-185 37
-36 -37 185
-186 181
-186 -184
-181 184 186
-187 -181
-187 184
181 -184 187
-188 -186
-188 -187
186 187 188
-189 -181
-189 -184
181 184 189
-190 -185
-190 -189
185 189 190
-191 -37
-191 38
37 -38 191
-192 37
-192 -38
-37 38 192
-193 -191
-193 -192
191 192 193
-194 37
-194 38
-37 -38 194
-195 190
-195 -193
-190 193 195
-196 -190
-196 193
190 -193 196
-197 -195
-197 -196
195 196 197
-198 -190
-198 -193
190 193 198
-199 -194
-199 -198
194 198 199
-200 -38
-200 39
38 -39 200
-201 38
-201 -39
-38 39 201
-202 -200
-202 -201
200 201 202
-203 38
-203 39
-38 -39 203
-204 199
-204 -202
-199 202 204
-205 -199
-205 202
199 -202 205
-206 -204
-206 -205
204 205 206
-207 -199
-207 -202
199 202 207
-208 -203
-208 -207
203 207 208
-209 -39
-209 40
39 -40 209
-210 39
-210 -40
-39 40 210
-211 -209
-211 -210
209 210 211
-212 39
-212 40
-39 -40 212
-213 208
-213 -211
-208 211 213
-214 -208
-214 211
208 -211 214
-215 -213
-215 -214
213 214 215
-216 -208
-216 -211
208 211 216
-217 -212
-217 -216
212 216 217
-218 -40
-218 41
40 -41 218
-219 40
-219 -41
-40 41 219
-220 -218
-220 -219
218 219 220
-221 40
-221 41
-40 -41 221
-222 217
-222 -220
-217 220 222
-223 -217
-223 220
217 -220 223
-224 -222
-224 -223
222 223 224
-225 -217
-225 -220
217 220 225
-226 -221
-226 -225
221 225 226
-227 -41
-227 42
41 -42 227
-228 41
-228 -42
-41 42 228
-229 -227
-229 -228
227 228 229
-230 41
-230 42
-41 -42 230
-231 226
-231 -229
-226 229 231
-232 -226
-232 229
226 -229 232
-233 -231
-233 -232
231 232 233
-234 -226
-234 -229
226 229 234
-235 -230
-235 -234
230 234 235
-236 -42
-236 43
42 -43 236
-237 42
-237 -43
-42 43 237
-238 -236
-238 -237
236 237 238
-239 42
-239 43
-42 -43 239
-240 235
-240 -238
-235 238 240
-241 -235
-241 238
235 -238 241
-242 -240
-242 -241
240 241 242
-243 -235
-243 -238
235 238 243
-244 -239
-244 -243
239 243 244
-245 -43
-245 44
43 -44 245
-246 43
-246 -44
-43 44 246
-247 -245
-247 -246
245 246 247
-248 43
-248 44
-43 -44 248
-249 244
-249 -247
-244 247 249
-250 -244
-250 247
244 -247 250
-251 -249
-251 -250
249 250 251
-252 -244
-252 -247
244 247 252
-253 -248
-253 -252
248 252 253
-254 -44
-254 45
44 -45 254
-255 44
-255 -45
-44 45 255
-256 -254
-256 -255
254 255 256
-257 44
-257 45
-44 -45 257
-258 253
-258 -256
-253 256 258
-259 -253
-259 256
253 -256 259
-260 -258
-260 -259
258 259 260
-261 -253
-261 -256
253 256 261
-262 -257
-262 -261
257 261 262
-263 -45
-263 46
45 -46 263
-264 45
-264 -46
-45 46 264
-265 -263
-265 -264
263 264 265
-266 45
-266 46
-45 -46 266
-267 262
-267 -265
-262 265 267
-268 -262
-268 265
262 -265 268
-269 -267
-269 -268
267 268 269
-270 -262
-270 -265
262 265 270
-271 -266
-271 -270
266 270 271
-272 -46
-272 47
46 -47 272
-273 46
-273 -47
-46 47 273
-274 -272
-274 -273
272 273 274
-275 46
-275 47
-46 -47 275
-276 271
-276 -274
-271 274 276
-277 -271
-277 274
271 -274 277
-278 -276
-278 -277
276 277 278
-279 -271
-279 -274
271 274 279
-280 -275
-280 -279
275 279 280
-281 -47
-281 48
47 -48 281
-282 47
-282 -48
-47 48 282
-283 -281
-283 -282
281 282 283
-284 47
-284 48
-47 -48 284
-285 280
-285 -283
-280 283 285
-286 -280
-286 283
280 -283 286
-287 -285
-287 -286
285 286 287
-288 -280
-288 -283
280 283 288
-289 -284
-289 -288
284 288 289
-290 -48
-290 49
48 -49 290
-291 48
-291 -49
-48 49 291
-292 -290
-292 -291
290 291 292
-293 48
-293 49
-48 -49 293
-294 289
-294 -292
-289 292 294
-295 -289
-295 292
289 -292 295
-296 -294
-296 -295
294 295 296
-297 -289
-297 -292
289 292 297
-298 -293
-298 -297
293 297 298
-299 -49
-299 50
49 -50 299
-300 49
-300 -50
-49 50 300
-301 -299
-301 -300
299 300 301
-302 49
-302 50
-49 -50 302
-303 298
-303 -301
-298 301 303
-304 -298
-304 301
298 -301 304
-305 -303
-305 -304
303 304 305
-306 -298
-306 -301
298 301 306
-307 -302
-307 -306
302 306 307
-308 -50
-308 51
50 -51 308
-309 50
-309 -51
-50 51 309
-310 -308
-310 -309
308 309 310
-311 50
-311 51
-50 -51 311
-312 307
-312 -310
-307 310 312
-313 -307
-313 310
307 -310 313
-314 -312
-314 -313
312 313 314
-315 -307
-315 -310
307 310 315
-316 -311
-316 -315
311 315 316
-317 -51
-317 52
51 -52 317
-318 51
-318 -52
-51 52 318
-319 -317
-319 -318
317 318 319
-320 51
-320 52
-51 -52 320
-321 316
-321 -319
-316 319 321
-322 -316
-322 319
316 -319 322
-323 -321
-323 -322
321 322 323
-324 -316
-324 -319
316 319 324
-325 -320
-325 -324
320 324 325
-326 -52
-326 53
52 -53 326
-327 52
-327 -53
-52 53 327
-328 -326
-328 -327
326 327 328
-329 52
-329 53
-52 -53 329
-330 325
-330 -328
-325 328 330
-331 -325
-331 328
325 -328 331
-332 -330
-332 -331
330 331 332
-333 -325
-333 -328
325 328 333
-334 -329
-334 -333
329 333 334
-335 -53
-335 54
53 -54 335
-336 53
-336 -54
-53 54 336
-337 -335
-337 -336
335 336 337
-338 53
-338 54
-53 -54 338
-339 334
-339 -337
-334 337 339
-340 -334
-340 337
334 -337 340
-341 -339
-341 -340
339 340 341
-342 -334
-342 -337
334 337 342
-343 -338
-343 -342
338 342 343
-344 25
-344 -89
-25 89 344
-345 -25
-345 27
25 -27 345
-346 -344
-346 -345
344 345 346
-347 25
-347 -98
-25 98 347
-348 -25
-348 28
25 -28 348
-349 -347
-349 -348
347 348 349
-350 25
-350 -107
-25 107 350
-351 -25
-351 29
25 -29 351
-352 -350
-352 -351
350 351 352
-353 25
-353 -116
-25 116 353
-354 -25
-354 30
25 -30 354
-355 -353
-355 -354
353 354 355
-356 25
-356 -125
-25 125 356
-357 -25
-357 31
25 -31 357
-358 -356
-358 -357
356 357 358
-359 25
-359 -134
-25 134 359
-360 -25
-360 32
25 -32 360
-361 -359
-361 -360
359 360 361
-362 25
-362 -143
-25 143 362
-363 -25
-363 33
25 -33 363
-364 -362
-364 -363
362 363 364
-365 25
-365 -152
-25 152 365
-366 -25
-366 34
25 -34 366
-367 -365
-367 -366
365 366 367
-368 25
-368 -161
-25 161 368
-369 -25
-369 35
25 -35 369
-370 -368
-370 -369
368 369 370
-371 25
-371 -170
-25 170 371
-372 -25
-372 36
25 -36 372
-373 -371
-373 -372
371 372 373
-374 25
-374 -179
-25 179 374
-375 -25
-375 37
25 -37 375
-376 -374
-376 -375
374 375 376
-377 25
-377 -188
-25 188 377
-378 -25
-378 38
25 -38 378
-379 -377
-379 -378
377 378 379
-380 25
-380 -197
-25 197 380
-381 -25
-381 39
25 -39 381
-382 -380
-382 -381
380 381 382
-383 25
-383 -206
-25 206 383
-384 -25
-384 40
25 -40 384
-385 -383
-385 -384
383 384 385
-386 25
-386 -215
-25 215 386
-387 -25
-387 41
25 -41 387
-388 -386
-388 -387
386 387 388
-389 25
-389 -224
-25 224 389
-390 -25
-390 42
25 -42 390
-391 -389
-391 -390
389 390 391
-392 25
-392 -233
-25 233 392
-393 -25
-393 43
25 -43 393
-394 -392
-394 -393
392 393 394
-395 25
-395 -242
-25 242 395
-396 -25
-396 44
25 -44 396
-397 -395
-397 -396
395 396 397
-398 25
-398 -251
-25 251 398
-399 -25
-399 45
25 -45 399
-400 -398
-400 -399
398 399 400
-401 25
-401 -260
-25 260 401
-402 -25
-402 46
25 -46 402
-403 -401
-403 -402
401 402 403
-404 25
-404 -269
-25 269 404
-405 -25
-405 47
25 -47 405
-406 -404
-406 -405
404 405 406
-407 25
-407 -278
-25 278 407
-408 -25
-408 48
25 -48 408
-409 -407
-409 -408
407 408 409
-410 25
-410 -287
-25 287 410
-411 -25
-411 49
25 -49 411
-412 -410
-412 -411
410 411 412
-413 25
-413 -296
-25 296 413
-414 -25
-414 50
25 -50 414
-415 -413
-415 -414
413 414 415
-416 25
-416 -305
-25 305 416
-417 -25
-417 51
25 -51 417
-418 -416
-418 -417
416 417 418
-419 25
-419 -314
-25 314 419
-420 -25
-420 52
25 -52 420
-421 -419
-421 -420
419 420 421
-422 25
-422 -323
-25 323 422
-423 -25
-423 53
25 -53 423
-424 -422
-424 -423
422 423 424
-425 25
-425 -332
-25 332 425
-426 -25
-426 54
25 -54 426
-427 -425
-427 -426
425 426 427
-428 25
-428 -341
-25 341 428
-429 1
-429 82
-1 -82 429
-430 -82
-430 83
82 -83 430
-431 -429
-431 -430
429 430 431
-432 2
-432 82
-2 -82 432
-433 -82
-433 -346
82 346 433
-434 -432
-434 -433
432 433 434
-435 3
-435 82
-3 -82 435
-436 -82
-436 -349
82 349 436
-437 -435
-437 -436
435 436 437
-438 4
-438 82
-4 -82 438
-439 -82
-439 -352
82 352 439
-440 -438
-440 -439
438 439 440
-441 5
-441 82
-5 -82 441
-442 -82
-442 -355
82 355 442
-443 -441
-443 -442
441 442 443
-444 6
-444 82
-6 -82 444
-445 -82
-445 -358
82 358 445
-446 -444
-446 -445
444 445 446
-447 7
-447 82
-7 -82 447
-448 -82
-448 -361
82 361 448
-449 -447
-449 -448
447 448 449
-450 8
-450 82
-8 -82 450
-451 -82
-451 -364
82 364 451
-452 -450
-452 -451
450 451 452
-453 9
-453 82
-9 -82 453
-454 -82
-454 -367
82 367 454
-455 -453
-455 -454
453 454 455
-456 10
-456 82
-10 -82 456
-457 -82
-457 -370
82 370 457
-458 -456
-458 -457
456 457 458
-459 11
-459 82
-11 -82 459
-460 -82
-460 -373
82 373 460
-461 -459
-461 -460
459 460 461
-462 12
-462 82
-12 -82 462
-463 -82
-463 -376
82 376 463
-464 -462
-464 -463
462 463 464
-465 13
-465 82
-13 -82 465
-466 -82
-466 -379
82 379 466
-467 -465
-467 -466
465 466 467
-468 14
-468 82
-14 -82 468
-469 -82
-469 -382
82 382 469
-470 -468
-470 -469
468 469 470
-471 15
-471 82
-15 -82 471
-472 -82
-472 -385
82 385 472
-473 -471
-473 -472
471 472 473
-474 16
-474 82
-16 -82 474
-475 -82
-475 -388
82 388 475
-476 -474
-476 -475
474 475 476
-477 17
-477 82
-17 -82 477
-478 -82
-478 -391
82 391 478
-479 -477
-479 -478
477 478 479
-480 18
-480 82
-18 -82 480
-481 -82
-481 -394
82 394 481
-482 -480
-482 -481
480 481 482
-483 19
-483 82
-19 -82 483
-484 -82
-484 -397
82 397 484
-485 -483
-485 -484
483 484 485
-486 20
-486 82
-20 -82 486
-487 -82
-487 -400
82 400 487
-488 -486
-488 -487
486 487 488
-489 21
-489 82
-21 -82 489
-490 -82
-490 -403
82 403 490
-491 -489
-491 -490
489 490 491
-492 22
-492 82
-22 -82 492
-493 -82
-493 -406
82 406 493
-494 -492
-494 -493
492 493 494
-495 23
-495 82
-23 -82 495
-496 -82
-496 -409
82 409 496
-497 -495
-497 -496
495 496 497
-498 24
-498 82
-24 -82 498
-499 -82
-499 -412
82 412 499
-500 -498
-500 -499
498 499 500
-501 -82
-501 -415
82 415 501
-502 -82
-502 -418
82 418 502
-503 -82
-503 -421
82 421 503
-504 -82
-504 -424
82 424 504
-505 -82
-505 -427
82 427 505
-506 -82
-506 428
82 -428 506
-507 -54
-507 343
54 -343 507
-508 25
-508 -507
-25 507 508
508
